\ENCODING=ISO-8859-1
\Problem name: TSP

Minimize
 obj1: 0 x1 + 3.5804053226019 x2 + 12.7813918043111 x3 + 1.0654562253326 x4
       + 5.65450744217788 x5 + 11.6155676501392 x6 + 15.1640068813854 x7
       + 15.0723222182206 x8 + 10.4111523184964 x9 + 16.8837719497205 x10
       + 3.5804053226019 x11 + 0 x12 + 12.8183272811931 x13
       + 4.2499956139215 x14 + 4.17136520841139 x15 + 8.0749804252486 x16
       + 11.62250350871 x17 + 11.5177138867361 x18 + 10.6158836159461 x19
       + 13.369858610363 x20 + 12.7813918043111 x21 + 12.8183272811931 x22
       + 0 x23 + 11.9851830863614 x24 + 8.7808462814768 x25
       + 14.9521584712768 x26 + 17.1458878890256 x27 + 17.3440878258912 x28
       + 2.37709758607361 x29 + 17.8947719521425 x30 + 1.0654562253326 x31
       + 4.2499956139215 x32 + 11.9851830863614 x33 + 0 x34
       + 5.47907012280962 x35 + 12.1117916648273 x36 + 15.6471134217085 x37
       + 15.5779836313218 x38 + 9.60827645911674 x39 + 17.3236957692927 x40
       + 5.65450744217788 x41 + 4.17136520841139 x42 + 8.7808462814768 x43
       + 5.47907012280962 x44 + 0 x45 + 8.16836742948828 x46
       + 11.4288819800498 x47 + 11.4595982142123 x48 + 6.71777028012748 x49
       + 12.8748362401417 x50 + 11.6155676501392 x51 + 8.0749804252486 x52
       + 14.9521584712768 x53 + 12.1117916648273 x54 + 8.16836742948828 x55
       + 0 x56 + 3.54900210075353 x57 + 3.4662219697466 x58
       + 13.6425822327997 x59 + 5.309538475993 x60 + 15.1640068813854 x61
       + 11.62250350871 x62 + 17.1458878890256 x63 + 15.6471134217085 x64
       + 11.4288819800498 x65 + 3.54900210075353 x66 + 0 x67
       + 0.375863639854934 x68 + 16.1930072613647 x69 + 1.84907302523535 x70
       + 15.0723222182206 x71 + 11.5177138867361 x72 + 17.3440878258912 x73
       + 15.5779836313218 x74 + 11.4595982142123 x75 + 3.4662219697466 x76
       + 0.375863639854934 x77 + 0 x78 + 16.3482949556853 x79
       + 2.09968393169639 x80 + 10.4111523184964 x81 + 10.6158836159461 x82
       + 2.37709758607361 x83 + 9.60827645911674 x84 + 6.71777028012748 x85
       + 13.6425822327997 x86 + 16.1930072613647 x87 + 16.3482949556853 x88
       + 0 x89 + 17.1548521093148 x90 + 16.8837719497205 x91
       + 13.369858610363 x92 + 17.8947719521425 x93 + 17.3236957692927 x94
       + 12.8748362401417 x95 + 5.309538475993 x96 + 1.84907302523535 x97
       + 2.09968393169639 x98 + 17.1548521093148 x99 + 0 x100
Subject To
 c1:   x11 + x21 + x31 + x41 + x51 + x61 + x71 + x81 + x91  = 1
 c2:   x2 + x22 + x32 + x42 + x52 + x62 + x72 + x82 + x92  = 1
 c3:   x3 + x13 + x33 + x43 + x53 + x63 + x73 + x83 + x93  = 1
 c4:   x4 + x14 + x24 + x44 + x54 + x64 + x74 + x84 + x94  = 1
 c5:   x5 + x15 + x25 + x35 + x55 + x65 + x75 + x85 + x95  = 1
 c6:   x6 + x16 + x26 + x36 + x46 + x66 + x76 + x86 + x96  = 1
 c7:   x7 + x17 + x27 + x37 + x47 + x57 + x77 + x87 + x97  = 1
 c8:   x8 + x18 + x28 + x38 + x48 + x58 + x68 + x88 + x98  = 1
 c9:   x9 + x19 + x29 + x39 + x49 + x59 + x69 + x79 + x99  = 1
 c10:  x10 + x20 + x30 + x40 + x50 + x60 + x70 + x80 + x90  = 1
 c11:  x2 + x3 + x4 + x5 + x6 + x7 + x8 + x9 + x10  = 1
 c12:  x11 + x13 + x14 + x15 + x16 + x17 + x18 + x19 + x20  = 1
 c13:  x21 + x22 + x24 + x25 + x26 + x27 + x28 + x29 + x30  = 1
 c14:  x31 + x32 + x33 + x35 + x36 + x37 + x38 + x39 + x40  = 1
 c15:  x41 + x42 + x43 + x44 + x46 + x47 + x48 + x49 + x50  = 1
 c16:  x51 + x52 + x53 + x54 + x55 + x57 + x58 + x59 + x60  = 1
 c17:  x61 + x62 + x63 + x64 + x65 + x66 + x68 + x69 + x70  = 1
 c18:  x71 + x72 + x73 + x74 + x75 + x76 + x77 + x79 + x80  = 1
 c19:  x81 + x82 + x83 + x84 + x85 + x86 + x87 + x88 + x90  = 1
 c20:  x91 + x92 + x93 + x94 + x95 + x96 + x97 + x98 + x99  = 1
 c21:  9 x13 + x101 - x102 <= 8
 c22:  9 x14 + x101 - x103 <= 8
 c23:  9 x15 + x101 - x104 <= 8
 c24:  9 x16 + x101 - x105 <= 8
 c25:  9 x17 + x101 - x106 <= 8
 c26:  9 x18 + x101 - x107 <= 8
 c27:  9 x19 + x101 - x108 <= 8
 c28:  9 x20 + x101 - x109 <= 8
 c29:  9 x22 - x101 + x102 <= 8
 c30:  9 x24 + x102 - x103 <= 8
 c31:  9 x25 + x102 - x104 <= 8
 c32:  9 x26 + x102 - x105 <= 8
 c33:  9 x27 + x102 - x106 <= 8
 c34:  9 x28 + x102 - x107 <= 8
 c35:  9 x29 + x102 - x108 <= 8
 c36:  9 x30 + x102 - x109 <= 8
 c37:  9 x32 - x101 + x103 <= 8
 c38:  9 x33 - x102 + x103 <= 8
 c39:  9 x35 + x103 - x104 <= 8
 c40:  9 x36 + x103 - x105 <= 8
 c41:  9 x37 + x103 - x106 <= 8
 c42:  9 x38 + x103 - x107 <= 8
 c43:  9 x39 + x103 - x108 <= 8
 c44:  9 x40 + x103 - x109 <= 8
 c45:  9 x42 - x101 + x104 <= 8
 c46:  9 x43 - x102 + x104 <= 8
 c47:  9 x44 - x103 + x104 <= 8
 c48:  9 x46 + x104 - x105 <= 8
 c49:  9 x47 + x104 - x106 <= 8
 c50:  9 x48 + x104 - x107 <= 8
 c51:  9 x49 + x104 - x108 <= 8
 c52:  9 x50 + x104 - x109 <= 8
 c53:  9 x52 - x101 + x105 <= 8
 c54:  9 x53 - x102 + x105 <= 8
 c55:  9 x54 - x103 + x105 <= 8
 c56:  9 x55 - x104 + x105 <= 8
 c57:  9 x57 + x105 - x106 <= 8
 c58:  9 x58 + x105 - x107 <= 8
 c59:  9 x59 + x105 - x108 <= 8
 c60:  9 x60 + x105 - x109 <= 8
 c61:  9 x62 - x101 + x106 <= 8
 c62:  9 x63 - x102 + x106 <= 8
 c63:  9 x64 - x103 + x106 <= 8
 c64:  9 x65 - x104 + x106 <= 8
 c65:  9 x66 - x105 + x106 <= 8
 c66:  9 x68 + x106 - x107 <= 8
 c67:  9 x69 + x106 - x108 <= 8
 c68:  9 x70 + x106 - x109 <= 8
 c69:  9 x72 - x101 + x107 <= 8
 c70:  9 x73 - x102 + x107 <= 8
 c71:  9 x74 - x103 + x107 <= 8
 c72:  9 x75 - x104 + x107 <= 8
 c73:  9 x76 - x105 + x107 <= 8
 c74:  9 x77 - x106 + x107 <= 8
 c75:  9 x79 + x107 - x108 <= 8
 c76:  9 x80 + x107 - x109 <= 8
 c77:  9 x82 - x101 + x108 <= 8
 c78:  9 x83 - x102 + x108 <= 8
 c79:  9 x84 - x103 + x108 <= 8
 c80:  9 x85 - x104 + x108 <= 8
 c81:  9 x86 - x105 + x108 <= 8
 c82:  9 x87 - x106 + x108 <= 8
 c83:  9 x88 - x107 + x108 <= 8
 c84:  9 x90 + x108 - x109 <= 8
 c85:  9 x92 - x101 + x109 <= 8
 c86:  9 x93 - x102 + x109 <= 8
 c87:  9 x94 - x103 + x109 <= 8
 c88:  9 x95 - x104 + x109 <= 8
 c89:  9 x96 - x105 + x109 <= 8
 c90:  9 x97 - x106 + x109 <= 8
 c91:  9 x98 - x107 + x109 <= 8
 c92:  9 x99 - x108 + x109 <= 8
 c93:  x2 + x11 <= 1
 c94:  x3 + x21 <= 1
 c95:  x4 + x31 <= 1
 c96:  x5 + x41 <= 1
 c97:  x6 + x51 <= 1
 c98:  x7 + x61 <= 1
 c99:  x8 + x71 <= 1
 c100: x9 + x81 <= 1
 c101: x10 + x91 <= 1
 c102: x13 + x22 <= 1
 c103: x14 + x32 <= 1
 c104: x15 + x42 <= 1
 c105: x16 + x52 <= 1
 c106: x17 + x62 <= 1
 c107: x18 + x72 <= 1
 c108: x19 + x82 <= 1
 c109: x20 + x92 <= 1
 c110: x24 + x33 <= 1
 c111: x25 + x43 <= 1
 c112: x26 + x53 <= 1
 c113: x27 + x63 <= 1
 c114: x28 + x73 <= 1
 c115: x29 + x83 <= 1
 c116: x30 + x93 <= 1
 c117: x35 + x44 <= 1
 c118: x36 + x54 <= 1
 c119: x37 + x64 <= 1
 c120: x38 + x74 <= 1
 c121: x39 + x84 <= 1
 c122: x40 + x94 <= 1
 c123: x46 + x55 <= 1
 c124: x47 + x65 <= 1
 c125: x48 + x75 <= 1
 c126: x49 + x85 <= 1
 c127: x50 + x95 <= 1
 c128: x57 + x66 <= 1
 c129: x58 + x76 <= 1
 c130: x59 + x86 <= 1
 c131: x60 + x96 <= 1
 c132: x68 + x77 <= 1
 c133: x69 + x87 <= 1
 c134: x70 + x97 <= 1
 c135: x79 + x88 <= 1
 c136: x80 + x98 <= 1
 c137: x90 + x99 <= 1
Bounds
      x1 = 0
 0 <= x2 <= 1
 0 <= x3 <= 1
 0 <= x4 <= 1
 0 <= x5 <= 1
 0 <= x6 <= 1
 0 <= x7 <= 1
 0 <= x8 <= 1
 0 <= x9 <= 1
 0 <= x10 <= 1
 0 <= x11 <= 1
      x12 = 0
 0 <= x13 <= 1
 0 <= x14 <= 1
 0 <= x15 <= 1
 0 <= x16 <= 1
 0 <= x17 <= 1
 0 <= x18 <= 1
 0 <= x19 <= 1
 0 <= x20 <= 1
 0 <= x21 <= 1
 0 <= x22 <= 1
      x23 = 0
 0 <= x24 <= 1
 0 <= x25 <= 1
 0 <= x26 <= 1
 0 <= x27 <= 1
 0 <= x28 <= 1
 0 <= x29 <= 1
 0 <= x30 <= 1
 0 <= x31 <= 1
 0 <= x32 <= 1
 0 <= x33 <= 1
      x34 = 0
 0 <= x35 <= 1
 0 <= x36 <= 1
 0 <= x37 <= 1
 0 <= x38 <= 1
 0 <= x39 <= 1
 0 <= x40 <= 1
 0 <= x41 <= 1
 0 <= x42 <= 1
 0 <= x43 <= 1
 0 <= x44 <= 1
      x45 = 0
 0 <= x46 <= 1
 0 <= x47 <= 1
 0 <= x48 <= 1
 0 <= x49 <= 1
 0 <= x50 <= 1
 0 <= x51 <= 1
 0 <= x52 <= 1
 0 <= x53 <= 1
 0 <= x54 <= 1
 0 <= x55 <= 1
      x56 = 0
 0 <= x57 <= 1
 0 <= x58 <= 1
 0 <= x59 <= 1
 0 <= x60 <= 1
 0 <= x61 <= 1
 0 <= x62 <= 1
 0 <= x63 <= 1
 0 <= x64 <= 1
 0 <= x65 <= 1
 0 <= x66 <= 1
      x67 = 0
 0 <= x68 <= 1
 0 <= x69 <= 1
 0 <= x70 <= 1
 0 <= x71 <= 1
 0 <= x72 <= 1
 0 <= x73 <= 1
 0 <= x74 <= 1
 0 <= x75 <= 1
 0 <= x76 <= 1
 0 <= x77 <= 1
      x78 = 0
 0 <= x79 <= 1
 0 <= x80 <= 1
 0 <= x81 <= 1
 0 <= x82 <= 1
 0 <= x83 <= 1
 0 <= x84 <= 1
 0 <= x85 <= 1
 0 <= x86 <= 1
 0 <= x87 <= 1
 0 <= x88 <= 1
      x89 = 0
 0 <= x90 <= 1
 0 <= x91 <= 1
 0 <= x92 <= 1
 0 <= x93 <= 1
 0 <= x94 <= 1
 0 <= x95 <= 1
 0 <= x96 <= 1
 0 <= x97 <= 1
 0 <= x98 <= 1
 0 <= x99 <= 1
      x100 = 0
 1 <= x101 <= 9
 1 <= x102 <= 9
 1 <= x103 <= 9
 1 <= x104 <= 9
 1 <= x105 <= 9
 1 <= x106 <= 9
 1 <= x107 <= 9
 1 <= x108 <= 9
 1 <= x109 <= 9
Binaries
 x1  x2  x3  x4  x5  x6  x7  x8  x9  x10  x11  x12  x13  x14  x15  x16  x17 
 x18  x19  x20  x21  x22  x23  x24  x25  x26  x27  x28  x29  x30  x31  x32 
 x33  x34  x35  x36  x37  x38  x39  x40  x41  x42  x43  x44  x45  x46  x47 
 x48  x49  x50  x51  x52  x53  x54  x55  x56  x57  x58  x59  x60  x61  x62 
 x63  x64  x65  x66  x67  x68  x69  x70  x71  x72  x73  x74  x75  x76  x77 
 x78  x79  x80  x81  x82  x83  x84  x85  x86  x87  x88  x89  x90  x91  x92 
 x93  x94  x95  x96  x97  x98  x99  x100 
Generals
 x101  x102  x103  x104  x105  x106  x107  x108  x109 
End
